<number of tasks>
50

<cycle time>
1000

<order strength>
0.195


<task times>
1 143
2 115
3 133
4 260
5 36
6 165
7 28
8 144
9 27
10 115
11 63
12 77
13 325
14 226
15 298
16 53
17 180
18 371
19 66
20 165
21 117
22 81
23 29
24 210
25 157
26 111
27 224
28 169
29 196
30 225
31 55
32 119
33 108
34 91
35 110
36 74
37 64
38 276
39 341
40 165
41 23
42 39
43 61
44 152
45 114
46 287
47 159
48 222
49 84
50 331

<precedence relations>
1,8
2,9
3,10
4,11
5,12
5,14
6,12
6,25
7,13
7,44
8,15
9,17
10,17
11,16
12,18
12,47
15,19
16,22
17,20
17,23
17,24
17,25
18,21
18,50
19,26
20,28
21,29
22,30
23,27
24,33
24,49
25,31
25,32
26,37
27,34
28,35
29,36
30,38
33,39
34,41
35,42
36,40
37,44
38,43
40,45
41,46
41,47
41,50
42,48
43,48
43,49

<end>
